1 2163 10
2 1971 10
4 1956 9
5 1823 10
25 1775 9
284 1761 9
801 1738 9



1 2273 10
2 2000 10
3 1961 10
5 1884 10
13 1878 10
14 1862 10
20 1843 9
45 1810 9
176 1787 9
216 1772 9
665 1741 9



1 2219 10
2 1964 10
3 1945 10
5 1896 10
6 1849 10
18 1837 10
22 1807 9
50 1788 9
57 1769 9
954 1716 9



1 2203 10
2 2038 10
3 2006 10
4 1945 10
7 1879 10
10 1870 9
17 1806 10
39 1797 9
80 1769 9
147 1728 9



1 2240 10
2 1958 10
3 1956 10
4 1869 10
6 1842 9
17 1812 9
32 1792 9
52 1762 9
232 1759 9



